data/solutions/planning/wellformed/hard/weighting/wellformed_hard_instance15_gurobi.sol
Elapsed time: 5.37
Nodes explored: 2328
Nodes left: 1563
Relative gap: 0.005
Upper bound: 42418652.0
Lower bound: 42416642
C[0]=41465.0
C[1]=41465.0
C[2]=41465.0
C[3]=41465.0
C[4]=41465.0
C[5]=41465.0
C[6]=41465.0
C[7]=41461.0
C[8]=41457.0
C[9]=41454.0
y[0]=4
y[1]=8
y[2]=1
y[3]=5
y[4]=4
y[5]=1
y[6]=0
y[7]=7
y[8]=6
y[9]=4
y[10]=6
y[11]=3
y[12]=0
y[13]=9
y[14]=7
y[15]=1
y[16]=2
y[17]=8
y[18]=7
y[19]=1
y[20]=2
y[21]=0
y[22]=7
y[23]=3
y[24]=5
y[25]=9
y[26]=4
y[27]=4
y[28]=0
y[29]=4
y[30]=7
y[31]=2
y[32]=0
y[33]=5
y[34]=9
y[35]=0
y[36]=4
y[37]=0
y[38]=7
y[39]=3
y[40]=8
y[41]=0
y[42]=0
y[43]=2
y[44]=4
y[45]=2
y[46]=4
y[47]=7
y[48]=3
y[49]=8
y[50]=7
y[51]=7
y[52]=8
y[53]=5
y[54]=0
y[55]=6
y[56]=1
y[57]=5
y[58]=6
y[59]=9
y[60]=7
y[61]=4
y[62]=1
y[63]=6
y[64]=9
y[65]=3
y[66]=3
y[67]=5
y[68]=7
y[69]=4
y[70]=2
y[71]=3
y[72]=7
y[73]=2
y[74]=2
y[75]=9
y[76]=1
y[77]=4
y[78]=8
y[79]=5
y[80]=8
y[81]=8
y[82]=9
y[83]=6
y[84]=7
y[85]=1
y[86]=7
y[87]=2
y[88]=3
y[89]=7
y[90]=8
y[91]=5
y[92]=8
y[93]=3
y[94]=5
y[95]=3
y[96]=6
y[97]=5
y[98]=0
y[99]=0
y[100]=2
y[101]=3
y[102]=5
y[103]=9
y[104]=8
y[105]=5
y[106]=8
y[107]=9
y[108]=2
y[109]=9
y[110]=3
y[111]=2
y[112]=7
y[113]=4
y[114]=9
y[115]=1
y[116]=3
y[117]=6
y[118]=3
y[119]=1
y[120]=2
y[121]=2
y[122]=7
y[123]=0
y[124]=6
y[125]=5
y[126]=3
y[127]=1
y[128]=4
y[129]=9
y[130]=6
y[131]=2
y[132]=3
y[133]=4
y[134]=9
y[135]=0
y[136]=5
y[137]=3
y[138]=1
y[139]=0
y[140]=1
y[141]=9
y[142]=4
y[143]=1
y[144]=3
y[145]=9
y[146]=3
y[147]=1
y[148]=8
y[149]=4
y[150]=0
y[151]=7
y[152]=9
y[153]=5
y[154]=4
y[155]=1
y[156]=4
y[157]=6
y[158]=9
y[159]=8
y[160]=6
y[161]=2
y[162]=4
y[163]=2
y[164]=5
y[165]=8
y[166]=8
y[167]=1
y[168]=4
y[169]=9
y[170]=3
y[171]=0
y[172]=5
y[173]=2
y[174]=6
y[175]=9
y[176]=9
y[177]=2
y[178]=5
y[179]=7
y[180]=7
y[181]=7
y[182]=7
y[183]=0
y[184]=1
y[185]=9
y[186]=0
y[187]=8
y[188]=4
y[189]=3
y[190]=2
y[191]=9
y[192]=6
y[193]=9
y[194]=3
y[195]=9
y[196]=5
y[197]=1
y[198]=7
y[199]=3
y[200]=2
y[201]=9
y[202]=8
y[203]=7
y[204]=0
y[205]=9
y[206]=0
y[207]=3
y[208]=8
y[209]=0
y[210]=8
y[211]=7
y[212]=9
y[213]=4
y[214]=6
y[215]=9
y[216]=1
y[217]=2
y[218]=6
y[219]=7
y[220]=2
y[221]=1
y[222]=3
y[223]=1
y[224]=2
y[225]=2
y[226]=0
y[227]=6
y[228]=9
y[229]=9
y[230]=9
y[231]=4
y[232]=7
y[233]=7
y[234]=7
y[235]=5
y[236]=3
y[237]=5
y[238]=7
y[239]=8
y[240]=8
y[241]=9
y[242]=3
y[243]=3
y[244]=2
y[245]=4
y[246]=7
y[247]=0
y[248]=1
y[249]=8
y[250]=0
y[251]=0
y[252]=2
y[253]=0
y[254]=5
y[255]=1
y[256]=1
y[257]=9
y[258]=9
y[259]=6
y[260]=5
y[261]=8
y[262]=5
y[263]=6
y[264]=8
y[265]=8
y[266]=5
y[267]=1
y[268]=8
y[269]=5
y[270]=2
y[271]=9
y[272]=5
y[273]=2
y[274]=1
y[275]=8
y[276]=8
y[277]=1
y[278]=4
y[279]=6
y[280]=5
y[281]=7
y[282]=4
y[283]=6
y[284]=8
y[285]=5
y[286]=1
y[287]=0
y[288]=2
y[289]=6
y[290]=7
y[291]=2
y[292]=4
y[293]=4
y[294]=5
y[295]=2
y[296]=2
y[297]=5
y[298]=5
y[299]=9
y[300]=2
y[301]=8
y[302]=3
y[303]=7
y[304]=2
y[305]=3
y[306]=6
y[307]=1
y[308]=4
y[309]=0
y[310]=2
y[311]=5
y[312]=3
y[313]=5
y[314]=1
y[315]=0
y[316]=7
y[317]=1
y[318]=7
y[319]=9
y[320]=6
y[321]=5
y[322]=1
y[323]=4
y[324]=0
y[325]=0
y[326]=2
y[327]=0
y[328]=1
y[329]=2
y[330]=2
y[331]=0
y[332]=8
y[333]=9
y[334]=9
y[335]=1
y[336]=0
y[337]=0
y[338]=0
y[339]=0
y[340]=0
y[341]=0
y[342]=0
y[343]=6
y[344]=0
y[345]=4
y[346]=5
y[347]=0
y[348]=5
y[349]=0
y[350]=4
y[351]=0
y[352]=4
y[353]=7
y[354]=5
y[355]=7
y[356]=5
y[357]=7
y[358]=0
y[359]=9
y[360]=2
y[361]=0
y[362]=0
y[363]=2
y[364]=4
y[365]=0
y[366]=5
y[367]=0
y[368]=0
y[369]=1
y[370]=1
y[371]=8
y[372]=2
y[373]=2
y[374]=2
y[375]=6
y[376]=5
y[377]=6
y[378]=7
y[379]=8
y[380]=6
y[381]=3
y[382]=0
y[383]=5
y[384]=1
y[385]=9
y[386]=9
y[387]=9
y[388]=2
y[389]=8
y[390]=7
y[391]=1
y[392]=6
y[393]=9
y[394]=0
y[395]=1
y[396]=9
y[397]=3
y[398]=5
y[399]=9
